
;this file is automatically generated: Tue Apr 27 17:57:15 CST 2021

;declarations generated

(declare-fun oclExcludes ( Int Int) Bool)
(declare-fun Cardinality ( Int) Int)
(declare-fun type_5e802900_fb5a_4878_acdd_520b98c18100_University ( Int) Bool)
(declare-fun student_year ( Int) Int)
(declare-fun type_5e802900_fb5a_4878_acdd_520b98c18100_Student ( Int) Bool)
(declare-fun obj_ee547897_a198_42d8_a5ff_ecf4ce7af1e8 ( Int) Int)
(declare-fun type_5e802900_fb5a_4878_acdd_520b98c18100_Module ( Int) Bool)
(declare-fun type_5e802900_fb5a_4878_acdd_520b98c18100_Child ( Int) Bool)
(declare-fun k67e15d36_c7d0_4357_8e3d_46ae22f51599 () Int)
(declare-fun type_5e802900_fb5a_4878_acdd_520b98c18100_Person ( Int) Bool)
(declare-fun oclSelect ( Int Bool) Int)
(declare-fun type_5e802900_fb5a_4878_acdd_520b98c18100_Department ( Int) Bool)
(declare-fun module_year ( Int) Int)
(declare-fun rel_c2402b5a_be9f_4f22_a583_164d3dab27cf_study ( Int Int) Bool)
(declare-fun container_ ( Int) Int)
(declare-fun oclIncludes ( Int Int) Bool)
(declare-fun k35373569_6ac5_4680_8d66_fb491653c3bd () Int)
(declare-fun ObjAt ( Int Int) Int)

;formula(s) generated
(assert (forall ((x Int)(y Int)) (=> (and ( rel_c2402b5a_be9f_4f22_a583_164d3dab27cf_study ( obj_ee547897_a198_42d8_a5ff_ecf4ce7af1e8 x )   ( obj_ee547897_a198_42d8_a5ff_ecf4ce7af1e8 y )  )  (and (and ( type_5e802900_fb5a_4878_acdd_520b98c18100_Student x )  ( type_5e802900_fb5a_4878_acdd_520b98c18100_Person x ) ) ( type_5e802900_fb5a_4878_acdd_520b98c18100_Module y ) )) (or (or (or (= (* ( Cardinality ( container_ x )  )  0) (* ( Cardinality ( container_ y )  )  1)) (and (= (* ( Cardinality ( container_ y )  )  1) (* ( Cardinality ( container_ x )  )  k67e15d36_c7d0_4357_8e3d_46ae22f51599)) (>= k67e15d36_c7d0_4357_8e3d_46ae22f51599 0))) (= (* ( Cardinality ( container_ x )  )  0) (* ( Cardinality ( container_ y )  )  1))) (and (= (* ( Cardinality ( container_ y )  )  1) (* ( Cardinality ( container_ x )  )  k35373569_6ac5_4680_8d66_fb491653c3bd)) (>= k35373569_6ac5_4680_8d66_fb491653c3bd 0))))))
(assert (! (and (forall ((v Int)) (=> (and ( type_5e802900_fb5a_4878_acdd_520b98c18100_Student v )  ( type_5e802900_fb5a_4878_acdd_520b98c18100_Person v ) ) (>= ( student_year ( obj_ee547897_a198_42d8_a5ff_ecf4ce7af1e8 v )  )  1))) (forall ((v Int)) (=> (and ( type_5e802900_fb5a_4878_acdd_520b98c18100_Student v )  ( type_5e802900_fb5a_4878_acdd_520b98c18100_Person v ) ) (<= ( student_year ( obj_ee547897_a198_42d8_a5ff_ecf4ce7af1e8 v )  )  6)))):named l0))
(assert (! (and (exists ((s Int)) (and (and ( type_5e802900_fb5a_4878_acdd_520b98c18100_Student s )  ( type_5e802900_fb5a_4878_acdd_520b98c18100_Person s ) ) (= ( student_year ( obj_ee547897_a198_42d8_a5ff_ecf4ce7af1e8 s )  )  6))) (exists ((s Int)) (and (and ( type_5e802900_fb5a_4878_acdd_520b98c18100_Student s )  ( type_5e802900_fb5a_4878_acdd_520b98c18100_Person s ) ) (< ( student_year ( obj_ee547897_a198_42d8_a5ff_ecf4ce7af1e8 s )  )  6)))):named l1))
(assert (! (forall ((s1 Int)) (=> (and ( type_5e802900_fb5a_4878_acdd_520b98c18100_Student s1 )  ( type_5e802900_fb5a_4878_acdd_520b98c18100_Person s1 ) ) (forall ((m1 Int)) (=> (and ( type_5e802900_fb5a_4878_acdd_520b98c18100_Module m1 )  ( rel_c2402b5a_be9f_4f22_a583_164d3dab27cf_study ( obj_ee547897_a198_42d8_a5ff_ecf4ce7af1e8 s1 )   ( obj_ee547897_a198_42d8_a5ff_ecf4ce7af1e8 m1 )  ) ) (= ( student_year ( obj_ee547897_a198_42d8_a5ff_ecf4ce7af1e8 s1 )  )  ( module_year ( obj_ee547897_a198_42d8_a5ff_ecf4ce7af1e8 m1 )  ) ))))):named l2))
(assert (! (and (forall ((v Int)) (=> ( type_5e802900_fb5a_4878_acdd_520b98c18100_Module v )  (>= ( module_year ( obj_ee547897_a198_42d8_a5ff_ecf4ce7af1e8 v )  )  1))) (forall ((v Int)) (=> ( type_5e802900_fb5a_4878_acdd_520b98c18100_Module v )  (<= ( module_year ( obj_ee547897_a198_42d8_a5ff_ecf4ce7af1e8 v )  )  5)))):named l3))
(assert (! (forall ((s Int)) (=> (and ( type_5e802900_fb5a_4878_acdd_520b98c18100_Student s )  ( type_5e802900_fb5a_4878_acdd_520b98c18100_Person s ) ) (exists ((v Int)) (and ( type_5e802900_fb5a_4878_acdd_520b98c18100_Module v )  ( rel_c2402b5a_be9f_4f22_a583_164d3dab27cf_study ( obj_ee547897_a198_42d8_a5ff_ecf4ce7af1e8 s )   ( obj_ee547897_a198_42d8_a5ff_ecf4ce7af1e8 v )  ) )))):named l4))
(assert (! (exists ((o Int)) (and ( type_5e802900_fb5a_4878_acdd_520b98c18100_Child ( obj_ee547897_a198_42d8_a5ff_ecf4ce7af1e8 o )  )  ( type_5e802900_fb5a_4878_acdd_520b98c18100_Person ( obj_ee547897_a198_42d8_a5ff_ecf4ce7af1e8 o )  ) )):named c0))
(assert (! (exists ((o Int)) ( type_5e802900_fb5a_4878_acdd_520b98c18100_Department ( obj_ee547897_a198_42d8_a5ff_ecf4ce7af1e8 o )  ) ):named c1))
(assert (! (exists ((o Int)) ( type_5e802900_fb5a_4878_acdd_520b98c18100_Module ( obj_ee547897_a198_42d8_a5ff_ecf4ce7af1e8 o )  ) ):named c2))
(assert (! (exists ((o Int)) ( type_5e802900_fb5a_4878_acdd_520b98c18100_Person ( obj_ee547897_a198_42d8_a5ff_ecf4ce7af1e8 o )  ) ):named c3))
(assert (! (exists ((o Int)) (and ( type_5e802900_fb5a_4878_acdd_520b98c18100_Student ( obj_ee547897_a198_42d8_a5ff_ecf4ce7af1e8 o )  )  ( type_5e802900_fb5a_4878_acdd_520b98c18100_Person ( obj_ee547897_a198_42d8_a5ff_ecf4ce7af1e8 o )  ) )):named c4))
(assert (! (exists ((o Int)) ( type_5e802900_fb5a_4878_acdd_520b98c18100_University ( obj_ee547897_a198_42d8_a5ff_ecf4ce7af1e8 o )  ) ):named c5))

 ;end of formula 